games.fzn
array [1..3] of int: X_INTRODUCED_18 = [1,1,-1];
array [1..2] of int: X_INTRODUCED_21 = [1,-1];
var 2..5: X_INTRODUCED_1:: is_defined_var;
var 0..5: X_INTRODUCED_2:: is_defined_var;
var 0..5: X_INTRODUCED_3:: is_defined_var;
var 1..5: X_INTRODUCED_4;
var 1..5: X_INTRODUCED_5;
var 1..5: X_INTRODUCED_6;
var 1..5: X_INTRODUCED_7;
var -15..35: reward:: is_defined_var;
array [1..4] of var int: visits:: output_array([1..4]) = [X_INTRODUCED_4,X_INTRODUCED_5,X_INTRODUCED_6,X_INTRODUCED_7];
constraint int_lin_eq([1,1],[X_INTRODUCED_1,X_INTRODUCED_4],7):: defines_var(X_INTRODUCED_1);
constraint int_lin_eq(X_INTRODUCED_18,[X_INTRODUCED_2,X_INTRODUCED_5,X_INTRODUCED_1],2):: defines_var(X_INTRODUCED_2);
constraint int_lin_eq(X_INTRODUCED_18,[X_INTRODUCED_3,X_INTRODUCED_6,X_INTRODUCED_2],2):: defines_var(X_INTRODUCED_3);
constraint int_lin_le(X_INTRODUCED_21,[X_INTRODUCED_5,X_INTRODUCED_1],0);
constraint int_lin_le(X_INTRODUCED_21,[X_INTRODUCED_6,X_INTRODUCED_2],0);
constraint int_lin_le(X_INTRODUCED_21,[X_INTRODUCED_7,X_INTRODUCED_3],0);
constraint int_lin_eq([4,-1,-2,3,-1],[X_INTRODUCED_4,X_INTRODUCED_5,X_INTRODUCED_6,X_INTRODUCED_7,reward],0):: defines_var(reward);
solve  maximize reward;
